564.88,66.65,76.13
501.62,75.06,85.73
551.03,68.33,78.04
551.55,68.27,77.97
653.17,57.65,65.84
537.51,70.05,80.0
563.56,66.81,76.3
571.84,65.84,75.2
581.93,64.7,73.9
582.46,64.64,73.83
570.71,65.97,75.35
574.21,65.57,74.89
521.9,72.14,82.39
526.38,71.53,81.69
559.55,67.29,76.85
598.47,62.91,71.85
599.45,62.81,71.74
510.71,73.72,84.2
540.06,69.72,79.62
640.95,58.74,67.09
